(declare-fun e () String)
(declare-fun c () String)
(declare-fun g () String)
(declare-fun d () String)
(declare-fun f () String)
(declare-fun a () String)
(declare-fun h () String)
(assert (= (str.++ "ed" c) "b"))
(assert (= (str.++ h c "g" f) (str.++ "h" g "ddh")))
(assert (= e (str.++ "c" f d e "f" a)))

(check-sat)
